DIMENSION: 12
EDGE_WEIGHT_TYPE: EXPLICIT
EDGE_WEIGHT_FORMAT: FULL_MATRIX
EDGE_WEIGHT_SECTION:
32767 14 57 80 32767 45 42 46 77 21 32767 35 
14 32767 74 88 32767 86 1 39 41 81 37 22 
57 74 32767 66 32767 64 49 65 58 36 82 87 
80 88 66 32767 32767 57 35 32767 27 75 89 32767 
32767 32767 32767 32767 32767 70 85 59 32767 32767 45 98 
45 86 64 57 70 32767 32767 81 78 45 76 73 
42 1 49 35 85 32767 32767 61 32767 87 63 70 
46 39 65 32767 59 81 61 32767 13 77 32767 17 
77 41 58 27 32767 78 32767 13 32767 31 9 92 
21 81 36 75 32767 45 87 77 31 32767 52 8 
32767 37 82 89 45 76 63 32767 9 52 32767 59 
35 22 87 32767 98 73 70 17 92 8 59 32767 
EOF